p cnf 74 352
-18 -19 0
-18 -20 0
-18 -21 0
-18 -22 0
-19 -20 0
-19 -21 0
-19 -22 0
-20 -21 0
-20 -22 0
-21 -22 0
18 19 20 21 22 0
-23 -24 0
-23 -25 0
-23 -26 0
-23 -27 0
-23 -28 0
-24 -25 0
-24 -26 0
-24 -27 0
-24 -28 0
-25 -26 0
-25 -27 0
-25 -28 0
-26 -27 0
-26 -28 0
-27 -28 0
23 24 25 26 27 28 0
-18 -23 0
-19 -24 0
-20 -25 0
-21 -27 0
-22 -28 0
1 -18 -24 0
1 -23 -19 0
2 -18 -25 0
2 -23 -20 0
3 -18 -26 0
-18 -27 0
-23 -21 0
4 -18 0
4 -23 0
5 -18 -28 0
5 -23 -22 0
6 -19 -26 0
-19 -27 0
-24 -21 0
7 -19 0
7 -24 0
-19 -28 0
-24 -22 0
8 -20 -26 0
9 -20 -27 0
9 -25 -21 0
10 -20 0
10 -25 0
11 -20 -28 0
11 -25 -22 0
12 -26 -21 0
13 -26 0
14 -26 -22 0
15 -21 0
15 -27 0
16 -21 -28 0
16 -27 -22 0
17 -22 0
17 -28 0
-29 -30 0
-29 -31 0
-29 -32 0
-29 -33 0
-29 -34 0
-29 -35 0
-29 -36 0
-29 -37 0
-29 -38 0
-30 -31 0
-30 -32 0
-30 -33 0
-30 -34 0
-30 -35 0
-30 -36 0
-30 -37 0
-30 -38 0
-31 -32 0
-31 -33 0
-31 -34 0
-31 -35 0
-31 -36 0
-31 -37 0
-31 -38 0
-32 -33 0
-32 -34 0
-32 -35 0
-32 -36 0
-32 -37 0
-32 -38 0
-33 -34 0
-33 -35 0
-33 -36 0
-33 -37 0
-33 -38 0
-34 -35 0
-34 -36 0
-34 -37 0
-34 -38 0
-35 -36 0
-35 -37 0
-35 -38 0
-36 -37 0
-36 -38 0
-37 -38 0
29 30 31 32 33 34 35 36 37 38 0
-39 -40 0
-39 -41 0
-39 -42 0
-39 -43 0
-39 -44 0
-39 -45 0
-39 -46 0
-40 -41 0
-40 -42 0
-40 -43 0
-40 -44 0
-40 -45 0
-40 -46 0
-41 -42 0
-41 -43 0
-41 -44 0
-41 -45 0
-41 -46 0
-42 -43 0
-42 -44 0
-42 -45 0
-42 -46 0
-43 -44 0
-43 -45 0
-43 -46 0
-44 -45 0
-44 -46 0
-45 -46 0
39 40 41 42 43 44 45 46 0
-47 -48 0
-47 -49 0
-47 -50 0
-47 -51 0
-47 -52 0
-47 -53 0
-47 -54 0
-47 -55 0
-47 -56 0
-48 -49 0
-48 -50 0
-48 -51 0
-48 -52 0
-48 -53 0
-48 -54 0
-48 -55 0
-48 -56 0
-49 -50 0
-49 -51 0
-49 -52 0
-49 -53 0
-49 -54 0
-49 -55 0
-49 -56 0
-50 -51 0
-50 -52 0
-50 -53 0
-50 -54 0
-50 -55 0
-50 -56 0
-51 -52 0
-51 -53 0
-51 -54 0
-51 -55 0
-51 -56 0
-52 -53 0
-52 -54 0
-52 -55 0
-52 -56 0
-53 -54 0
-53 -55 0
-53 -56 0
-54 -55 0
-54 -56 0
-55 -56 0
47 48 49 50 51 52 53 54 55 56 0
-57 -58 0
-57 -59 0
-57 -60 0
-57 -61 0
-57 -62 0
-57 -63 0
-57 -64 0
-57 -65 0
-58 -59 0
-58 -60 0
-58 -61 0
-58 -62 0
-58 -63 0
-58 -64 0
-58 -65 0
-59 -60 0
-59 -61 0
-59 -62 0
-59 -63 0
-59 -64 0
-59 -65 0
-60 -61 0
-60 -62 0
-60 -63 0
-60 -64 0
-60 -65 0
-61 -62 0
-61 -63 0
-61 -64 0
-61 -65 0
-62 -63 0
-62 -64 0
-62 -65 0
-63 -64 0
-63 -65 0
-64 -65 0
57 58 59 60 61 62 63 64 65 0
-66 -67 0
-66 -68 0
-66 -69 0
-66 -70 0
-66 -71 0
-66 -72 0
-66 -73 0
-66 -74 0
-67 -68 0
-67 -69 0
-67 -70 0
-67 -71 0
-67 -72 0
-67 -73 0
-67 -74 0
-68 -69 0
-68 -70 0
-68 -71 0
-68 -72 0
-68 -73 0
-68 -74 0
-69 -70 0
-69 -71 0
-69 -72 0
-69 -73 0
-69 -74 0
-70 -71 0
-70 -72 0
-70 -73 0
-70 -74 0
-71 -72 0
-71 -73 0
-71 -74 0
-72 -73 0
-72 -74 0
-73 -74 0
66 67 68 69 70 71 72 73 74 0
-1 -38 0
-2 -29 -39 0
-2 -30 -40 0
-2 -31 -41 0
-2 -32 -42 0
-2 -33 -43 0
-2 -35 -44 0
-2 -36 -45 0
-2 -37 -46 0
-3 -29 -47 0
-3 -30 -48 0
-3 -31 -49 0
-3 -32 -50 0
-3 -33 -51 0
-3 -34 -52 0
-3 -35 -53 0
-3 -36 -54 0
-3 -37 -55 0
-3 -38 -56 0
-4 -29 -57 0
-4 -30 -58 0
-4 -31 -59 0
-4 -32 -60 0
-4 -33 -61 0
-4 -34 -62 0
-4 -36 -63 0
-4 -37 -64 0
-4 -38 -65 0
-5 -29 -66 0
-5 -30 -67 0
-5 -31 -68 0
-5 -32 -69 0
-5 -33 -70 0
-5 -34 -71 0
-5 -36 -72 0
-5 -37 -73 0
-5 -38 -74 0
-6 -56 0
-7 -65 0
-8 -39 -47 0
-8 -40 -48 0
-8 -41 -49 0
-8 -42 -50 0
-8 -43 -51 0
-8 -44 -53 0
-8 -45 -54 0
-8 -46 -55 0
-10 -39 -57 0
-10 -40 -58 0
-10 -41 -59 0
-10 -42 -60 0
-10 -43 -61 0
-10 -45 -63 0
-10 -46 -64 0
-11 -39 -66 0
-11 -40 -67 0
-11 -41 -68 0
-11 -42 -69 0
-11 -43 -70 0
-11 -45 -72 0
-11 -46 -73 0
-12 -56 0
-13 -47 -57 0
-13 -48 -58 0
-13 -49 -59 0
-13 -50 -60 0
-13 -51 -61 0
-13 -52 -62 0
-13 -54 -63 0
-13 -55 -64 0
-13 -56 -65 0
-14 -47 -66 0
-14 -48 -67 0
-14 -49 -68 0
-14 -50 -69 0
-14 -51 -70 0
-14 -52 -71 0
-14 -54 -72 0
-14 -55 -73 0
-14 -56 -74 0
-15 -65 0
-16 -74 0
-17 -57 -66 0
-17 -58 -67 0
-17 -59 -68 0
-17 -60 -69 0
-17 -61 -70 0
-17 -62 -71 0
-17 -63 -72 0
-17 -64 -73 0
-17 -65 -74 0
